(set-info :source loris-7.ddns.comp.nus.edu.sg/~project/hip/) 
(set-info :smt-lib-version 2.0) 
(set-info :status  sat) 
;Variables declarations
(declare-fun right_161_1497_primed () Int)
(declare-fun left_161_1496_primed () Int)
(declare-fun height_161_1495_primed () Int)
(declare-fun Anon_47 () Int)
(declare-fun ele_161_1494_primed () Int)
(declare-fun Anon_46 () Int)
(declare-fun left_160_2944 () Int)
(declare-fun right_159_2941 () Int)
(declare-fun r () Int)
(declare-fun k1_primed () Int)
(declare-fun k1 () Int)
(declare-fun an () Int)
(declare-fun ba1 () Int)
(declare-fun am () Int)
(declare-fun l () Int)
(declare-fun bn () Int)
(declare-fun ba2 () Int)
(declare-fun bm () Int)
(declare-fun rl () Int)
(declare-fun cn () Int)
(declare-fun ba3 () Int)
(declare-fun cm () Int)
(declare-fun rr () Int)
(declare-fun k2_primed () Int)
;Relations declarations
;Axioms assertions
;Antecedent
(assert (= right_161_1497_primed rl))
(assert (= left_161_1496_primed l))
(assert (= height_161_1495_primed Anon_47))
(assert (= ele_161_1494_primed Anon_46))
(assert (= left_160_2944 rl))
(assert (= right_159_2941 r))
(assert (= k2_primed r))
(assert (= k1_primed k1))
(assert (or (and (and (and (< l 1) (= am 0)) (= an 0)) (= ba1 1)) (and (and (and (and (and (<= 0 ba1) (<= (+ (- 0 an) 2) ba1)) (<= ba1 an)) (<= ba1 2)) (<= 1 am)) (> l 0))))
(assert (or (and (and (and (< rl 1) (= bm 0)) (= bn 0)) (= ba2 1)) (and (and (and (and (and (<= 0 ba2) (<= (+ (- 0 bn) 2) ba2)) (<= ba2 bn)) (<= ba2 2)) (<= 1 bm)) (> rl 0))))
(assert (or (and (and (and (< rr 1) (= cm 0)) (= cn 0)) (= ba3 1)) (and (and (and (and (and (<= 0 ba3) (<= (+ (- 0 cn) 2) ba3)) (<= ba3 cn)) (<= ba3 2)) (<= 1 cm)) (> rr 0))))
(assert (= k2_primed 1))
;Negation of Consequence
(assert (not false))
(check-sat)